# avogadro generated ORCA input file 
# Basic Mode
# 
! PBE RI OPT FREQ

%basis
  Basis "def2-TZVP"         # The orbital expansion basis set
  AuxJ  "def2/J"            # RI-J auxiliary basis set
end

* xyz 0 1
   P         -0.86200       -0.50900        0.17600
   O          0.48300       -1.36400        0.31000
   O         -0.29900        1.24600        0.63600
   O         -1.20800       -1.68400        1.04200
   O         -1.18300       -0.35900       -1.69100
   Mg         1.63900        1.37500        0.66900
   P          2.01800       -1.28700       -0.13700
   O          3.09200       -0.08200        0.24900
   O          2.11200       -1.14400       -2.02900
   O          2.35600       -2.39700        0.81400
   Mg         0.42400       -0.31100       -2.96100
*

