 # Version information for this restart file 
 # current date 2026-04-25 02:55:50.493
 # current working dir /storage/scratch/lv87/lv87680/visitors/elia/PPiMg2_sides
 # Program compiled at                             lun sep 15 09:25:09 CEST 2025
 # Program compiled on                                                    login2
 # Program compiled for                                                  Tirant4
 # Source code revision number                                       git:3158929
 &GLOBAL
   PRINT_LEVEL LOW
   PROJECT_NAME "PPiMg2_sides"
   RUN_TYPE MD
 &END GLOBAL
 &MOTION
   &MD
     ENSEMBLE NVT
     STEPS 20000
     TIMESTEP  4.9999999999999989E-001
     STEP_START_VAL 5500
     TIME_START_VAL  2.7499999999997531E+003
     ECONS_START_VAL -3.1624062530741930E+003
     TEMPERATURE  2.9800000000000000E+002
     &THERMOSTAT
       TYPE NOSE
       REGION GLOBAL
       &NOSE
         LENGTH 3
         YOSHIDA 3
         TIMECON  9.9999999999999986E+001
         MTS 2
         &COORD
             1.5935471270785799E+000  1.4924189198966035E+001  1.5343961397459441E+003
         &END COORD
         &VELOCITY
             9.1387475202208171E-006  6.5726088924159932E-006  1.0801172305687928E-002
         &END VELOCITY
         &MASS
             2.5016157435652364E+007  1.6129050571020223E+004  1.6129050571020223E+004
         &END MASS
         &FORCE
            -6.8404498745251227E-010  7.1024397525563574E-008 -5.8466814662452401E-008
         &END FORCE
       &END NOSE
     &END THERMOSTAT
     &AVERAGES T
       &RESTART_AVERAGES
         ITIMES_START 1
         AVECPU  3.6690242298358292E+001
         AVEHUGONIOT  0.0000000000000000E+000
         AVETEMP_BARO  0.0000000000000000E+000
         AVEPOT -3.1676339444544533E+003
         AVEKIN  8.6177501737639994E-001
         AVETEMP  3.5090483905040094E+002
         AVEKIN_QM  0.0000000000000000E+000
         AVETEMP_QM  0.0000000000000000E+000
         AVEVOL  3.4338549612652343E+004
         AVECELL_A  3.2503289485634397E+001
         AVECELL_B  3.2503289485634397E+001
         AVECELL_C  3.2503289485634397E+001
         AVEALPHA  9.0000000000000000E+001
         AVEBETA  9.0000000000000000E+001
         AVEGAMMA  9.0000000000000000E+001
         AVE_ECONS  2.5523354229553075E-001
         AVE_PRESS -8.5500185109885888E+002
         AVE_PXX -1.0413142273704086E+003
       &END RESTART_AVERAGES
     &END AVERAGES
     &PRINT
       &ENERGY SILENT
         ADD_LAST NUMERIC
         FILENAME =PPiMg2_sides-Energy.en
         LOG_PRINT_KEY T
         &EACH
           MD 100
         &END EACH
       &END ENERGY
       &PROGRAM_RUN_INFO SILENT
         ADD_LAST NUMERIC
         FILENAME =PPiMg2_sides-Motion.log
         LOG_PRINT_KEY T
         &EACH
           MD 100
         &END EACH
       &END PROGRAM_RUN_INFO
     &END PRINT
   &END MD
   &PRINT
     &TRAJECTORY SILENT
       ADD_LAST NUMERIC
       FILENAME =PPiMg2_sides-Trajectory.xyz
       LOG_PRINT_KEY T
       UNIT "angstrom"
       FORMAT XMOL
       &EACH
         MD 200
       &END EACH
     &END TRAJECTORY
     &RESTART SILENT
       ADD_LAST NUMERIC
       FILENAME =PPiMg2_sides-MD.restart
       LOG_PRINT_KEY T
       &EACH
         MD 200
       &END EACH
     &END RESTART
   &END PRINT
 &END MOTION
 &FORCE_EVAL
   METHOD QS
   STRESS_TENSOR ANALYTICAL
   &DFT
     BASIS_SET_FILE_NAME GTH_BASIS_SETS
     POTENTIAL_FILE_NAME GTH_POTENTIALS
     CHARGE 0
     &SCF
       MAX_SCF 20
       EPS_SCF  9.9999999999999995E-007
       SCF_GUESS RESTART
       &OT T
         MINIMIZER DIIS
         PRECONDITIONER FULL_ALL
       &END OT
       &OUTER_SCF T
         EPS_SCF  9.9999999999999995E-007
         MAX_SCF 20
       &END OUTER_SCF
       &PRINT
         &RESTART SILENT
           ADD_LAST NUMERIC
           &EACH
             MD 100
           &END EACH
         &END RESTART
       &END PRINT
     &END SCF
     &QS
       EPS_DEFAULT  1.0000000000000000E-010
       EPS_PGF_ORB  1.0000000000000000E-014
       EPS_FILTER_MATRIX  0.0000000000000000E+000
     &END QS
     &MGRID
       CUTOFF  4.0000000000000000E+002
       REL_CUTOFF  5.0000000000000000E+001
     &END MGRID
     &XC
       DENSITY_CUTOFF  1.0000000000000000E-010
       GRADIENT_CUTOFF  1.0000000000000000E-010
       TAU_CUTOFF  1.0000000000000000E-010
       &XC_FUNCTIONAL NO_SHORTCUT
         &PBE T
           PARAMETRIZATION REVPBE
         &END PBE
       &END XC_FUNCTIONAL
       &VDW_POTENTIAL
         POTENTIAL_TYPE PAIR_POTENTIAL
         &PAIR_POTENTIAL
           R_CUTOFF  1.0000000000000004E+001
           TYPE DFTD3
           PARAMETER_FILE_NAME dftd3.dat
           REFERENCE_FUNCTIONAL "revPBE"
           D3_EXCLUDE_KIND_PAIR 1 1
           D3_EXCLUDE_KIND_PAIR 1 2
           D3_EXCLUDE_KIND_PAIR 1 3
           D3_EXCLUDE_KIND_PAIR 1 4
         &END PAIR_POTENTIAL
       &END VDW_POTENTIAL
     &END XC
   &END DFT
   &SUBSYS
     &CELL
       A  1.7199999999999999E+001  0.0000000000000000E+000  0.0000000000000000E+000
       B  0.0000000000000000E+000  1.7199999999999999E+001  0.0000000000000000E+000
       C  0.0000000000000000E+000  0.0000000000000000E+000  1.7199999999999999E+001
       MULTIPLE_UNIT_CELL 1 1 1
     &END CELL
     &COORD
       P -5.0691770823704241E-001  5.5256253085317208E-001 -1.1002093978628249E+000
       O -7.4059853530975361E-001 -1.0442944293767398E+000 -4.6505208573540224E-001
       O  4.2924355701259437E-001  1.2445804243381562E+000 -4.7657332148876838E-002
       O -1.9892606209922703E+000  1.0288120259986635E+000 -1.3538161073649972E+000
       O  1.8634814251104459E-001  3.5337944190627507E-001 -2.4800663057416656E+000
       Mg  1.3775541748700004E+000  4.6757087059806740E-001  1.8730857343768552E+000
       P  3.7869333625592888E-001 -2.1906395982736244E+000 -1.2091976935891326E-001
       O  1.2722805100141532E+000 -1.5606142254676720E+000  1.0800878978708146E+000
       O  1.2655587715858823E+000 -2.2750111290866131E+000 -1.4140191386479879E+000
       O -3.3569778552504226E-001 -3.5514326995949799E+000  1.5344582213144381E-001
       Mg  1.1324425342005844E+000 -1.3725993922991759E+000 -3.2877048800616731E+000
       O  4.8899630409822653E-001  8.6381402893699448E+000 -9.6568194327157553E+000
       H  1.1300781772352053E+000  9.0955827526831499E+000 -9.0232842562800233E+000
       H -4.1121540767361386E-001  8.5932759444719622E+000 -9.2184122359981870E+000
       O -5.0291228077214889E+000 -4.1785866221518271E+000 -9.1653263854655265E+000
       H -5.3933143043903096E+000 -4.6598482436638546E+000 -8.4021760773896705E+000
       H -5.3258773082192130E+000 -3.2115133065418351E+000 -9.2038041332264751E+000
       O  7.1975531743242929E+000  8.4290376818693122E+000  2.4021639407451549E+000
       H  7.0670684336693004E+000  8.9730026223221806E+000  3.2271222150775025E+000
       H  6.4835262279702102E+000  7.7647811784820329E+000  2.4354955069754674E+000
       O  1.8715501584925949E+000 -2.0280339302500985E+000  8.0515337987893041E+000
       H  1.3440222400012249E+000 -2.7971694961258624E+000  7.7459527253326410E+000
       H  1.3865612289606988E+000 -1.2141839481588663E+000  7.9242986993290225E+000
       O  2.9454798291711817E+000  2.4818414296478872E+000 -3.2078575268269893E+000
       H  2.1219717664716882E+000  3.0321664468161185E+000 -3.0599790873343120E+000
       H  3.6465710351520348E+000  3.1371020444338527E+000 -3.4139184997336129E+000
       O  4.1211740308181515E+000 -6.7098872301246075E+000  2.3001496224653697E+000
       H  4.5667803844418984E+000 -5.8411776258561066E+000  2.4926702313692681E+000
       H  3.2243988329687330E+000 -6.5214849714491292E+000  2.0336660677439840E+000
       O -9.1602541927307453E+000 -3.2853134009910554E+000  6.6262669482071663E+000
       H -8.9467801490442387E+000 -2.5284087644467150E+000  6.0708073785376797E+000
       H -9.7948423926108070E+000 -3.7440012763657613E+000  6.0792696974178115E+000
       O  9.2479742430671017E+000  9.0854839645220338E+000  8.3536601486706488E+000
       H  8.3286142912146097E+000  8.9359980455277341E+000  8.5955325340029010E+000
       H  9.6135485126373315E+000  9.8269818350136031E+000  8.9650586972014885E+000
       O -2.9322969076566094E+000 -9.4682333229701818E+000  4.2885394689958165E+000
       H -3.8051557444608295E+000 -9.3334507883732005E+000  3.9351292403539220E+000
       H -2.6671835147371348E+000 -8.5448177958781848E+000  4.5398391649886065E+000
       O -9.0194697910829085E+000 -4.9543849605071664E+000 -5.2525405098532971E+000
       H -8.5833587132507052E+000 -4.1597611305429725E+000 -4.7980908732334351E+000
       H -9.7333386588365745E+000 -4.5080817314159329E+000 -5.7992303033236414E+000
       O -1.4641910507005114E+000 -8.9080731485187172E+000 -6.4254361761794856E+000
       H -2.1317281473500294E+000 -9.1065202516719364E+000 -5.7368152656808276E+000
       H -1.9532768353836605E+000 -8.7651418565741732E+000 -7.2475294371560262E+000
       O -1.6462301265063717E+000 -6.0137565724609958E+000 -4.5075605591947449E-001
       H -1.2891764101226177E+000 -5.1001548308939695E+000 -6.3637791564529345E-001
       H -2.5755737229769728E+000 -5.9261039857678082E+000 -7.2719700748107785E-001
       O  1.8686544899419824E+000 -7.5470472086552389E+000  4.7222627301389579E+000
       H  1.4469619076319178E+000 -6.7354425850809365E+000  4.3903354021303285E+000
       H  1.3002698493211973E+000 -7.6514669301032052E+000  5.5240300871393471E+000
       O  6.6138956543523220E+000  1.7479306714280693E+000  4.5308783192951791E+000
       H  6.3253968951929895E+000  2.6822283819887276E+000  4.4695018414454726E+000
       H  6.4231643848731297E+000  1.6076749242992256E+000  5.5130382532297499E+000
       O -4.5931265282126850E+000 -5.9780086467177016E+000  5.8088394134034527E+000
       H -4.3494951459573494E+000 -5.4072223502474168E+000  6.6458303662296156E+000
       H -5.1348766290890344E+000 -6.7122154899873179E+000  6.1163808334217702E+000
       O  8.2175719314801299E+000  8.7055891995347134E-001 -5.4709704511366146E+000
       H  7.2851171837356192E+000  4.8562368145633944E-001 -5.6442319197487381E+000
       H  8.4445705536993856E+000  1.2552233183863817E+000 -6.3774920246634537E+000
       O -3.1923482731277599E+000  1.2959792128820073E+000  3.0125914441821462E+000
       H -2.5936776565585338E+000  2.0779109890165905E+000  3.0284479207412596E+000
       H -2.6109131546584092E+000  5.0268109588105592E-001  3.0895977026130668E+000
       O  8.3875557494888913E+000  4.8257927400321785E+000  4.1133841167559009E+000
       H  9.0809335593417568E+000  5.1842353323639339E+000  3.4938273541896243E+000
       H  8.7771045415484963E+000  4.1283629824261974E+000  4.7361525872493253E+000
       O  5.9684176392261605E+000  5.2588212144419688E-001  7.2333692499406697E+000
       H  5.3827837119022872E+000  1.2013305815289648E+000  7.6194931532366716E+000
       H  5.4228484646711710E+000 -2.6540160513879230E-001  7.3981181234364914E+000
       O -1.9212947200952706E+000 -7.0556189480276421E+000 -3.1546576515466582E+000
       H -1.2109514544493807E+000 -6.3894775796209542E+000 -2.8467315067210870E+000
       H -1.8310079585354742E+000 -7.8322104399477297E+000 -2.5356030119283108E+000
       O  5.4861482453886925E+000 -6.0049246613919731E+000 -3.8377205905129914E+000
       H  5.2609636764311558E+000 -6.2363056959926189E+000 -2.9135853035532584E+000
       H  6.4801072752701909E+000 -6.0688272785174400E+000 -3.7971689074834538E+000
       O -6.5196616937472349E+000 -6.1732766506873356E+000 -1.6926316233124563E+000
       H -6.7335155740940014E+000 -6.1448113350025153E+000 -7.3646201734987171E-001
       H -5.5618685019414107E+000 -5.8934567647291880E+000 -1.6283396650936306E+000
       O  3.6151483222270766E+000 -8.9485245122051857E+000 -4.8093787773173595E+000
       H  4.6119125127952936E+000 -9.0493982302853002E+000 -4.7227224671701489E+000
       H  3.3915771845330789E+000 -8.8273848750856398E+000 -5.8036996964580476E+000
       O -1.6144524568252827E+000  4.3162949193361753E+000  9.1339745740669951E+000
       H -2.3230824884704422E+000  4.8909314275331237E+000  8.7720971618336101E+000
       H -1.0803212003893734E+000  4.9162507413662402E+000  9.7548022692134868E+000
       O  1.8350115516146444E+000  3.4967201959481313E+000  8.9404109054738683E+000
       H  1.3585528804804115E+000  4.1846358058212907E+000  8.4265904380396464E+000
       H  1.6067883549399473E+000  3.5883814673974714E+000  9.8906907772177579E+000
       O -6.0034251098544305E+000 -2.5894051988391560E+000 -6.2546997236770139E+000
       H -6.0518678162367276E+000 -2.5896891829643032E+000 -5.3018765724987906E+000
       H -5.2205180051621074E+000 -3.1913870382278686E+000 -6.3526124442354339E+000
       O -2.4791210231660679E+000 -2.9996205353149624E-001 -4.8471419305741996E+000
       H -3.3683776876813187E+000 -1.8943956840334930E-001 -4.3261243361295767E+000
       H -2.6010381909277003E+000 -3.6801397710307104E-001 -5.8471758356682120E+000
       O -8.0886389511504209E-001 -1.0395463511483900E+001 -3.6687627180984688E+000
       H -3.3035687962644461E-001 -1.1076253008423427E+001 -3.1388163358272783E+000
       H -3.6200103549331469E-001 -9.5474691182525273E+000 -3.4236613110167813E+000
       O -5.9572002708313123E+000  1.7298025747724193E+000  3.0667030974024949E+000
       H -5.0147439609532887E+000  1.7384429384776647E+000  3.2561590746845819E+000
       H -5.8377562335124562E+000  1.5103075822953695E+000  2.0501251707027235E+000
       O -2.1185186145128796E+000  1.3747578598664139E+000  7.2204947137970805E+000
       H -2.3613451229554316E+000  4.0739406582396243E-001  7.0825143373111468E+000
       H -3.0458151597384826E+000  1.7669073556850543E+000  7.1811506866025585E+000
       O -5.4179134019248920E+000  4.6372148849083690E+000  4.6305076352981462E+000
       H -4.4303516637370297E+000  4.6515818012052907E+000  4.5640880225614788E+000
       H -5.7569201118401638E+000  3.7477758053807553E+000  4.3145147740177237E+000
       O  5.2417218830761625E+000 -7.7387156576223246E+000 -1.3772555931066590E+000
       H  4.4419472985321482E+000 -7.7647513875978769E+000 -7.6047820011499545E-001
       H  6.0962988950207340E+000 -7.6358722639363954E+000 -7.7315334906669853E-001
       O  3.2446018628087261E+000  1.5521066839787219E+000  7.7513460986408553E+000
       H  3.2392962940630943E+000  1.9862439942714236E+000  6.8410671780016408E+000
       H  3.0163174113495765E+000  2.3128641687025886E+000  8.3322436415964898E+000
       O -6.4383720828768798E+000  6.2067229643143422E+000  7.2276676963438646E+000
       H -6.3208101243737760E+000  7.0860165269689288E+000  6.8237366020166119E+000
       H -6.5508358564178346E+000  5.6790703857290179E+000  6.3957877826686387E+000
       O -6.6388314459550801E-001 -2.1514507628132038E+000 -6.8129492792695503E+000
       H -5.7104010720218534E-001 -1.8194063260266562E+000 -5.9380094979948952E+000
       H  1.1105791877583580E-001 -1.7606494909355783E+000 -7.2673146912338042E+000
       O  5.5508996896267637E-001 -6.8983530448278687E+000  1.1296830956198063E+001
       H  9.9936579935020442E-001 -6.7287595615490305E+000  1.0427388951150558E+001
       H -3.0505597713139448E-001 -7.3714531390526661E+000  1.1037279629510296E+001
       O -8.5372406425261815E-001 -1.8922061058961119E+000 -3.6469107695818384E+000
       H -1.5121384384935310E+000 -1.3383193619281963E+000 -4.2710147192325216E+000
       H -1.3888969623930802E+000 -2.0660778727493456E+000 -2.8385117604702099E+000
       O -7.2140247495327015E-001  3.9830508989302551E+000  6.4117366901986648E+000
       H -2.7349473559075584E-002  4.6706375515370055E+000  6.4722844430848268E+000
       H -1.0625729152199903E+000  3.8054906997618523E+000  7.3298821742371292E+000
       O  4.6259623071029390E+000 -3.8102774744464112E+000 -6.5147961024948797E-001
       H  3.8006101039598232E+000 -4.3568543555432679E+000 -7.6471176245675798E-001
       H  4.4131799466785422E+000 -3.2259971369088332E+000 -1.4281805074761889E+000
       O  5.1714948268376064E+000 -2.7458409846426806E+000  8.2312723815815545E+000
       H  5.7337446962211143E+000 -2.8507080012088162E+000  9.0686694639922685E+000
       H  4.2755193086545864E+000 -2.7368422361231386E+000  8.6486566623708772E+000
       O -4.3044013320991823E+000  5.0183494930904828E+000  1.3047061757197387E+000
       H -4.1012635058497020E+000  4.1320078543179601E+000  8.9409178803506517E-001
       H -3.5023485547788442E+000  5.5784798538204337E+000  1.1478796085950169E+000
       O -2.7759587658777165E+000  5.0442238382970208E+000  4.8400220290610134E+000
       H -2.6958775786441502E+000  5.9854786430018212E+000  5.0305879599488055E+000
       H -1.9886722498615865E+000  4.5661361840334429E+000  5.2668563757435471E+000
       O  1.1475214116313024E+000  6.3874284635549055E+000  8.1080972272482033E-001
       H  2.0288340186819291E+000  5.9613677691283735E+000  6.4001116054686868E-001
       H  1.1062507264215879E+000  7.1540076672523325E+000  2.5064161633995174E-001
       O -9.9887975450146609E+000  3.0724494604099815E+000  1.6854348927542575E+000
       H -9.9769065421698144E+000  3.9748406340566569E+000  1.2108588751367630E+000
       H -9.3679870534925769E+000  3.2172753190891252E+000  2.4693543243730383E+000
       O  5.5129832930641776E+000  4.4267423689464094E+000  6.3817540090761238E+000
       H  5.9770358993154220E+000  5.0063103332853478E+000  5.7344678503625195E+000
       H  4.9959871502968216E+000  5.0630181431594767E+000  6.9725841866196792E+000
       O -9.0946563509674903E+000  2.5737303210888043E+000 -1.5040362235559390E+000
       H -8.5670544356719116E+000  1.8422957996316722E+000 -1.0857393982870589E+000
       H -9.5617682482716599E+000  2.9917441261820401E+000 -7.2562026498074195E-001
       O  4.0470231164398687E+000 -4.6413853014577144E-001 -6.0291888811957230E+000
       H  4.0750984882328272E+000 -2.4225069903264332E-001 -5.0718927999001622E+000
       H  4.4334776871234380E+000  3.4985731263538056E-001 -6.4199741406971995E+000
       O -6.4551644396142178E+000 -7.5775258963558949E+000 -4.3283149750557461E+000
       H -6.4696465946571688E+000 -8.4899583230685725E+000 -4.0228186923418408E+000
       H -6.5869216920724281E+000 -7.0793582050833654E+000 -3.4612403273454007E+000
       O  5.4927637614387308E+000  7.7052336117218054E+000  5.7214402376828764E+000
       H  4.9146528731689818E+000  7.5549002101031109E+000  4.9343077087786877E+000
       H  5.8896945446025448E+000  8.5473207433779095E+000  5.4802531749526997E+000
       O  1.0674326441499774E+001  1.3475010605337712E+001  4.7924150580275491E+000
       H  1.0077442428099980E+001  1.4119602018174939E+001  5.2030296709568145E+000
       H  1.1165728028049010E+001  1.3035077506826539E+001  5.5223973626490199E+000
       O  2.9494490756233032E+000  6.3651763680088314E+000 -2.7695929622262079E+000
       H  2.8964872863216269E+000  7.1193718865614617E+000 -3.4298777950862691E+000
       H  3.5058176740970666E+000  5.7406488506392801E+000 -3.3163606821677378E+000
       O -1.4804394341799922E+000 -5.1800692030065001E+000  2.6808019848066169E+000
       H -1.4203352962448139E+000 -4.7658283560873000E+000  1.7892686741318193E+000
       H -1.3301131933492525E+000 -6.1417897867124500E+000  2.3451016543241545E+000
       O  5.6388892237576025E+000  1.9642761509059889E-001  2.4953271549515561E+000
       H  6.0607333890797648E+000  7.7632929976858300E-001  3.1793376312932948E+000
       H  6.1106062571656654E+000  5.1457779053728736E-001  1.6808932721960359E+000
       O -2.0061701010907216E+000 -5.0572589112171196E+000 -9.4586662590707071E+000
       H -2.5392944311845125E+000 -5.7771167004961086E+000 -9.0429702916871566E+000
       H -2.7524507998685541E+000 -4.4184659584064034E+000 -9.4880088829031344E+000
       O -6.6274311406202759E+000 -2.9571817279712356E+000 -8.0312865546264001E-001
       H -6.3124943842860342E+000 -3.5504414242781683E+000 -1.5017511726295856E+000
       H -5.8032774962305647E+000 -2.5913018745401288E+000 -4.3875698963272119E-001
       O -6.8491690161599683E+000  5.9387912738866797E+000  2.5624717286841050E+000
       H -6.2981216968068745E+000  5.7888345636649943E+000  1.7679129921936008E+000
       H -6.1743972982519120E+000  6.0241923767391619E+000  3.2940924373998324E+000
       O  1.1033071572767277E+001  5.8863943543236337E+000 -7.4059144453868191E+000
       H  1.0839417822187496E+001  5.8482738138976789E+000 -8.3775548695179847E+000
       H  1.0595081262134634E+001  6.6926630402087115E+000 -7.0922588909692132E+000
       O  3.2158506918355050E+000 -2.8367951319038123E+000  1.0334846492028033E+001
       H  2.5764569454006896E+000 -2.5754698341451148E+000  9.6130278995582366E+000
       H  3.5384690807698203E+000 -1.9132538864418933E+000  1.0613057359729995E+001
       O -3.5659452394479176E+000  7.2582557181635483E+000 -4.4420114791921756E+000
       H -3.4222821552912817E+000  6.4154040973955748E+000 -4.9132562253181078E+000
       H -2.8949436772667818E+000  7.2251179288081779E+000 -3.7279328998641139E+000
       O -8.4537601512237295E+000  6.8137147154813968E+000 -6.1222804999549041E+000
       H -8.9220860122673873E+000  6.5124490400378372E+000 -6.9544920240614045E+000
       H -8.6964703392980702E+000  7.7643515722081196E+000 -5.9984785899309516E+000
       O -5.8803239082972940E+000 -1.5875158288436688E+000  7.9441024084473053E+000
       H -6.7380071758120650E+000 -1.2894397125330852E+000  8.2959995706559919E+000
       H -5.6645729107281744E+000 -9.3019543756489265E-001  7.2514602971583519E+000
       O -3.5145104373784521E+000  5.5980413237684576E+000  7.6360492167938618E+000
       H -3.4199362977482424E+000  5.1202079577379465E+000  6.7779060926320094E+000
       H -4.4902541506404932E+000  5.7652341973517034E+000  7.7200615947798443E+000
       O  6.5813007557586962E+000 -3.1210094187439514E+000  1.0911850247432854E+001
       H  6.4018767748095033E+000 -2.5969009628623345E+000  1.1716416213885219E+001
       H  7.4142192331421741E+000 -2.6785483401425489E+000  1.0571587650373891E+001
       O -4.0484589397694029E+000 -5.2806608807220865E+000 -2.0639322779300171E+000
       H -3.5062338775821673E+000 -4.4761750787488115E+000 -1.8375626363037285E+000
       H -3.6287384154904450E+000 -5.7014903745162018E+000 -2.8474510102846562E+000
       O  1.0152342171365383E+000  4.4822728334223161E+000 -2.5462396438302877E+000
       H  1.5803873393924492E+000  5.1182983614859037E+000 -2.0212033768274451E+000
       H  6.1124112646181217E-001  3.9896230726943780E+000 -1.7575515950656400E+000
       O -6.3396833207052783E+000 -5.1765015190567363E+000  1.4296498342359552E+000
       H -6.3553217687806987E+000 -4.3219183418009690E+000  9.1652673414981212E-001
       H -5.5091979537868037E+000 -5.0763321441705846E+000  1.9519602748278941E+000
       O -2.9048926890105333E+000 -3.0748222956222713E+000 -1.3343440890311238E+000
       H -3.4744442365854091E+000 -2.2776080831792602E+000 -1.1223593652856683E+000
       H -2.1360649974487527E+000 -3.1605930146153325E+000 -7.2450114382519559E-001
       O  4.7302841889845979E+000  3.1131450751732768E+000  2.5696611159612228E+000
       H  5.6298661896691318E+000  3.3667850146763110E+000  2.1490856461724039E+000
       H  4.0754261503022429E+000  3.8098452437809556E+000  2.4037158350999044E+000
       O  5.0869495005852983E+000  6.5441827058634994E+000 -1.1311926592139778E+000
       H  4.2040010112486144E+000  6.5027915616706320E+000 -1.6215841627298426E+000
       H  4.8923025180576953E+000  7.0721339867797877E+000 -3.0513612187364231E-001
       O  2.2989963461595666E+000  4.7022975297108678E+000  3.7405682344278159E+000
       H  2.5401082962646742E+000  4.2294592647359828E+000  4.5713061206421388E+000
       H  1.3414047951330310E+000  4.8853977131771886E+000  3.8031582393002470E+000
       O  1.3711687326208317E+000 -7.4658715938062938E+000 -3.4699097155590035E+000
       H  2.1061018885535021E+000 -8.0046237466061250E+000 -3.8739335215737039E+000
       H  1.0450978330567715E+000 -7.1661069459710580E+000 -4.3611702577229323E+000
       O  9.0215386834502045E+000 -6.9149194788701773E-001 -1.5839135294205715E+000
       H  9.4982811909449101E+000 -1.4837717631353056E+000 -1.2678850810848237E+000
       H  9.5178126408276569E+000 -4.8173457203850684E-001 -2.4526761550058733E+000
       O -8.0167655245561669E+000  4.0116382942845625E+000 -6.1874157307484658E+000
       H -7.4718491794776805E+000  4.7467565176480058E+000 -6.6036808473561948E+000
       H -7.8857423823892381E+000  4.1934986182540799E+000 -5.2149243540438359E+000
       O -1.0957840347703929E+001  1.6214384487602003E+000 -3.3065518496577417E+000
       H -1.0477173971092713E+001  1.8728009390588807E+000 -2.4952439115359191E+000
       H -1.0178897160787875E+001  1.5316604378217189E+000 -3.8941669276439788E+000
       O -4.8744100509964303E+000 -8.1706476245163930E+000  2.5090447379389809E+000
       H -4.7058884270533019E+000 -8.0355483941259198E+000  1.5236211542398816E+000
       H -4.8511152034184768E+000 -7.2223122929699306E+000  2.7750878172774378E+000
       O -1.1734862378798179E+000  2.1914073614322183E+000 -4.3152609888219784E+000
       H -1.4280790961379815E+000  1.5253568844492955E+000 -5.0143809929510237E+000
       H -9.6069322242219879E-001  1.6170228143585650E+000 -3.5303094594899083E+000
       O -2.1643381188650643E+000  6.5244352583144121E+000  1.3544481541287954E+000
       H -1.4365192676031859E+000  6.2476046438843404E+000  7.9090101293326753E-001
       H -1.8158507733153375E+000  6.8615462364157382E+000  2.2479283274590660E+000
       O -2.0691091711666112E+000 -9.2616776905623581E+000 -1.4463203937904598E+000
       H -1.1260750441768670E+000 -9.0868979575436075E+000 -1.0465554693627170E+000
       H -2.1707515775154920E+000 -1.0249432549748462E+001 -1.5233752839350079E+000
       O  4.8695666118915826E+000 -3.9342124083893140E+000  5.7435899725804491E+000
       H  5.1413690505203089E+000 -3.6366311681194219E+000  6.6183965420259696E+000
       H  4.1486808276660669E+000 -4.5816616395396670E+000  5.7808647424449182E+000
       O  9.3786298479844388E-001  2.3712015056664337E+000  2.4899254510671001E+000
       H  1.9032109409948008E-002  2.7323632491297651E+000  2.6602888930206099E+000
       H  1.5996556334174314E+000  3.0043699014328316E+000  2.8282510785680124E+000
       O  7.2673358327056414E+000  5.0581067060128557E+000 -1.7742490265840799E-001
       H  6.4283196382831314E+000  5.3729426471359911E+000 -6.3164172126159224E-001
       H  7.8623949861266480E+000  5.8480973463329278E+000 -2.1589438708657560E-001
       O  4.5021914562274254E+000  2.2170430066024993E+000 -9.0736232250267956E-001
       H  5.2628346117845997E+000  1.6373671007088804E+000 -6.5367361911640653E-001
       H  4.1744081276752549E+000  2.0150829232439835E+000 -1.8267252702417842E+000
       O  9.0402287220350486E-001  2.9700138333792814E+000 -5.4959707468047467E+000
       H  1.7886112723110492E+000  2.8040546480749868E+000 -4.9835814192406191E+000
       H  8.3382774794250658E-002  2.6484744466948000E+000 -4.9178479103652508E+000
       O -1.5905965128071244E+000  9.8768691432468714E+000  5.4232142106892534E+000
       H -1.6844787372671104E+000  9.5135985150829274E+000  6.3575451673662995E+000
       H -2.2838431636813086E+000  1.0547056805880462E+001  5.4389203029872277E+000
       O -1.0513559036232753E+001 -7.0930600287344152E+000  4.9597518816500443E+000
       H -1.0861916278850199E+001 -6.2911825548593772E+000  4.4355184285837561E+000
       H -9.5737972346382705E+000 -6.7725411347829683E+000  4.8908574863267615E+000
       O -4.1455816461285364E+000  9.2243469451455162E+000 -1.6387789066183023E-001
       H -4.4935186641701481E+000  1.0080487403579994E+001 -5.9598044557616969E-001
       H -3.2269931002347940E+000  8.9951256485765807E+000 -5.3151757844565395E-001
       O  4.5861881400245474E+000  4.6587694334189207E+000 -4.0045696643916155E+000
       H  4.4984966750319924E+000  4.9589664843981662E+000 -4.9732599210963411E+000
       H  5.5664320081821170E+000  4.7088464794391403E+000 -3.7845984344760910E+000
       O -3.5579330343294200E+000 -4.2112113071789414E+000 -6.1626960393087238E+000
       H -2.7289508200742958E+000 -3.9434425100717538E+000 -5.6932584453191861E+000
       H -3.6877984612125232E+000 -5.1136309862163900E+000 -5.6958101712248013E+000
       O  2.7638784990536971E+000  2.3511040986467018E+000  5.2369221847025180E+000
       H  1.8510594665306108E+000  1.9737326848850598E+000  5.2388051155353557E+000
       H  3.3379205133862668E+000  1.9037713497351436E+000  4.5936588348762495E+000
       O -6.3756524005328687E+000  7.3207162946306847E-001  3.0825491035880903E-001
       H -6.1508295329276841E+000  1.3855758924415278E+000 -4.1943373117661276E-001
       H -7.2897373546933109E+000  3.2652226792579958E-001  1.4727671852904492E-001
       O  1.7165040108543046E+000 -6.2827988396867696E+000  8.8751284675952640E+000
       H  2.4914251421124280E+000 -6.1361708338872178E+000  8.2495617977315145E+000
       H  1.3230670031317135E+000 -5.3785902699128041E+000  8.9456144920224219E+000
       O  2.8687751695080044E-001  8.7733810491241666E+000 -8.9005660191698222E-001
       H  3.3365058986422730E-001  9.6238439912427971E+000 -3.6362268383727941E-001
       H  4.4645069819954625E-001  9.1491824684051721E+000 -1.7946080289312154E+000
       O  1.9618384103929365E-001  1.1824275354120004E+000  5.4617279335151760E+000
       H -1.7235491650439555E-001  2.0325716097530790E+000  5.7671574990464602E+000
       H  3.4409521323671521E-001  6.4435092307409103E-001  6.2996354722497587E+000
       O  2.1250088507108194E+000 -5.0914023658881904E+000 -1.7335088603747113E+000
       H  1.7008890476335050E+000 -4.2135697876376890E+000 -1.8896172132086770E+000
       H  1.8489060438997345E+000 -5.7741842922620439E+000 -2.3856907381981065E+000
       O -8.3882884885584232E+000 -2.1627043546176727E+000 -7.7171867680635113E+000