 # Version information for this restart file 
 # current date 2026-04-23 14:46:51.087
 # current working dir /gpfs/scratch/uv36/adrian/deepmd-training/cp2k_MD/PPiMg2_sides
 # Program compiled at                             Tue Jul 11 08:22:31 CEST 2023
 # Program compiled on                                            glogin1.bsc.mn
 # Program compiled for                                    MN4-x86-64-intel-impi
 # Source code revision number                                       git:d1a8893
 &GLOBAL
   PRINT_LEVEL  LOW
   PROJECT_NAME PPiMg2_sides
   RUN_TYPE  MD
 &END GLOBAL
 &MOTION
   &MD
     ENSEMBLE  NVT
     STEPS  20000
     TIMESTEP     4.9999999999999994E-01
     STEP_START_VAL  4500
     TIME_START_VAL     2.2499999999998186E+03
     ECONS_START_VAL    -3.1624062530741930E+03
     TEMPERATURE     2.9800000000000000E+02
     &THERMOSTAT
       TYPE  NOSE
       REGION  GLOBAL
       &NOSE
         LENGTH  3
         YOSHIDA  3
         TIMECON     9.9999999999999986E+01
         MTS  2
         &COORD
               1.5802883982941871E+00    1.4967457938686911E+01    1.2986311457444453E+03
         &END COORD
         &VELOCITY
               7.3135286023302765E-06    2.1202319870355103E-06    1.2010386934722367E-02
         &END VELOCITY
         &MASS
               2.5016157435652364E+07    1.6129050571020223E+04    1.6129050571020223E+04
         &END MASS
         &FORCE
              -2.7002710807706770E-10    2.4449409807021752E-08   -5.8505518466426216E-08
         &END FORCE
       &END NOSE
     &END THERMOSTAT
     &AVERAGES  T
       &RESTART_AVERAGES
         ITIMES_START  1
         AVECPU     1.7248097779327011E+01
         AVEHUGONIOT     0.0000000000000000E+00
         AVETEMP_BARO     0.0000000000000000E+00
         AVEPOT    -3.1675810653571980E+03
         AVEKIN     8.9038715239104582E-01
         AVETEMP     3.6255537014002311E+02
         AVEKIN_QM     0.0000000000000000E+00
         AVETEMP_QM     0.0000000000000000E+00
         AVEVOL     3.4338549612655093E+04
         AVECELL_A     3.2503289485633054E+01
         AVECELL_B     3.2503289485633054E+01
         AVECELL_C     3.2503289485633054E+01
         AVEALPHA     9.0000000000000000E+01
         AVEBETA     9.0000000000000000E+01
         AVEGAMMA     9.0000000000000000E+01
         AVE_ECONS     5.3519056340926761E-02
         AVE_PRESS    -4.3081790557747343E+02
         AVE_PXX    -6.4865870786325172E+02
       &END RESTART_AVERAGES
     &END AVERAGES
     &PRINT
       &ENERGY  SILENT
         ADD_LAST  NUMERIC
         FILENAME =PPiMg2_sides-Energy.en
         LOG_PRINT_KEY  T
         &EACH
           MD  100
         &END EACH
       &END ENERGY
       &PROGRAM_RUN_INFO  SILENT
         ADD_LAST  NUMERIC
         FILENAME =PPiMg2_sides-Motion.log
         LOG_PRINT_KEY  T
         &EACH
           MD  100
         &END EACH
       &END PROGRAM_RUN_INFO
     &END PRINT
   &END MD
   &PRINT
     &TRAJECTORY  SILENT
       ADD_LAST  NUMERIC
       FILENAME =PPiMg2_sides-Trajectory.xyz
       LOG_PRINT_KEY  T
       UNIT angstrom
       FORMAT  XMOL
       &EACH
         MD  200
       &END EACH
     &END TRAJECTORY
     &RESTART  SILENT
       ADD_LAST  NUMERIC
       FILENAME =PPiMg2_sides-MD.restart
       LOG_PRINT_KEY  T
       &EACH
         MD  200
       &END EACH
     &END RESTART
   &END PRINT
 &END MOTION
 &FORCE_EVAL
   METHOD  QS
   STRESS_TENSOR  ANALYTICAL
   &DFT
     BASIS_SET_FILE_NAME GTH_BASIS_SETS
     POTENTIAL_FILE_NAME GTH_POTENTIALS
     CHARGE  0
     &SCF
       MAX_SCF  20
       EPS_SCF     9.9999999999999995E-07
       SCF_GUESS  RESTART
       &OT  T
         MINIMIZER  DIIS
         PRECONDITIONER  FULL_ALL
       &END OT
       &OUTER_SCF  T
         EPS_SCF     9.9999999999999995E-07
         MAX_SCF  20
       &END OUTER_SCF
       &PRINT
         &RESTART  SILENT
           ADD_LAST  NUMERIC
           &EACH
             MD  100
           &END EACH
         &END RESTART
       &END PRINT
     &END SCF
     &QS
       EPS_DEFAULT     1.0000000000000000E-10
       EPS_PGF_ORB     1.0000000000000000E-14
       EPS_FILTER_MATRIX     0.0000000000000000E+00
     &END QS
     &MGRID
       CUTOFF     4.0000000000000000E+02
       REL_CUTOFF     5.0000000000000000E+01
     &END MGRID
     &XC
       DENSITY_CUTOFF     1.0000000000000000E-10
       GRADIENT_CUTOFF     1.0000000000000000E-10
       TAU_CUTOFF     1.0000000000000000E-10
       &XC_FUNCTIONAL  NO_SHORTCUT
         &PBE  T
           PARAMETRIZATION  REVPBE
         &END PBE
       &END XC_FUNCTIONAL
       &VDW_POTENTIAL
         POTENTIAL_TYPE  PAIR_POTENTIAL
         &PAIR_POTENTIAL
           R_CUTOFF     1.0000000000000002E+01
           TYPE  DFTD3
           PARAMETER_FILE_NAME dftd3.dat
           REFERENCE_FUNCTIONAL revPBE
           D3_EXCLUDE_KIND_PAIR  1 1
           D3_EXCLUDE_KIND_PAIR  1 2
           D3_EXCLUDE_KIND_PAIR  1 3
           D3_EXCLUDE_KIND_PAIR  1 4
         &END PAIR_POTENTIAL
       &END VDW_POTENTIAL
     &END XC
   &END DFT
   &SUBSYS
     &CELL
       A     1.7199999999999999E+01    0.0000000000000000E+00    0.0000000000000000E+00
       B     0.0000000000000000E+00    1.7199999999999999E+01    0.0000000000000000E+00
       C     0.0000000000000000E+00    0.0000000000000000E+00    1.7199999999999999E+01
       MULTIPLE_UNIT_CELL  1 1 1
     &END CELL
     &COORD
P   -8.1780497537510255E-01    2.1001758816046293E-01   -9.4189406072867621E-01
O   -9.1995537932336191E-01   -1.4426909302279778E+00   -5.0574470282528006E-01
O   -5.3386212305759317E-01    1.0185890019185202E+00    3.6497225346645235E-01
O   -2.2900317063015141E+00    3.7684446162263252E-01   -1.4289541554407168E+00
O    3.0233876871068038E-01    2.9076880744660699E-01   -2.0742642439773387E+00
Mg    1.1779692263365029E+00    4.7257849305706945E-01    1.4802451778202828E+00
P    4.5900558731511587E-01   -2.2595011893049191E+00   -2.3396002330676835E-01
O    1.3888057750343099E+00   -1.4053342974029563E+00    7.3409149736437795E-01
O    1.2342762574305242E+00   -2.4525356162828817E+00   -1.5754894019969097E+00
O    4.7384204019156127E-02   -3.6486516219324892E+00    3.6091115013114256E-01
Mg    1.0976033364962836E+00   -1.2925823450545768E+00   -3.2892147033856904E+00
O    5.8598698960224882E-01    8.7709252289180046E+00   -9.1315914195209160E+00
H    7.9014352159015677E-01    9.3525952271570389E+00   -9.9137011276608042E+00
H   -3.7809927452279235E-01    8.7413000262168232E+00   -9.1162620987934719E+00
O   -3.8352009350340635E+00   -4.9255818946796790E+00   -1.0002623508409462E+01
H   -4.2421225109544674E+00   -5.0811633401132417E+00   -9.0987303926887630E+00
H   -4.3513947084185505E+00   -4.1424127416246748E+00   -1.0288068411482525E+01
O    7.0405192980013611E+00    8.7868021120349518E+00    2.6918157014422426E+00
H    7.5502764243379383E+00    9.2955492086997165E+00    3.3935851428718165E+00
H    6.1111798994422966E+00    8.8592878091442220E+00    2.9385185834278533E+00
O    1.7655739439140781E+00   -2.9774506028323589E+00    8.2247234763572674E+00
H    1.3527394311260088E+00   -3.5834272172383739E+00    7.6249405532377361E+00
H    1.5336126467692435E+00   -2.0565175567155385E+00    8.0563193910363928E+00
O    2.7787123961764371E+00    2.0915105482832219E+00   -3.9021104674245897E+00
H    2.4565941441039336E+00    2.6915141356559094E+00   -3.2115977746878448E+00
H    3.4639322312012850E+00    2.6570009828235053E+00   -4.3446760285080064E+00
O    3.6525270953088054E+00   -6.1557693311057289E+00    3.0144436545219673E+00
H    4.4272491429085346E+00   -5.5585634396373909E+00    3.2214389145865723E+00
H    3.4706136702125523E+00   -5.7502162704832189E+00    2.1210662711676602E+00
O   -8.3071397246245784E+00   -2.4426688836957133E+00    6.8871971182860010E+00
H   -8.5380139942771756E+00   -1.7728214794683494E+00    6.2105331951171348E+00
H   -9.2697197461901570E+00   -2.5718679010680630E+00    7.1172349213521997E+00
O    8.1009464809887515E+00    9.7358952355825163E+00    7.4323775878475011E+00
H    7.6332470623907982E+00    9.9091881466703384E+00    6.5840550382685015E+00
H    8.2504255367454391E+00    1.0638961690718936E+01    7.8086163109172952E+00
O   -2.0568923205710812E+00   -9.3204437062139185E+00    3.6417911296127428E+00
H   -2.5968876036764059E+00   -8.5219626489722060E+00    3.4195598714435742E+00
H   -1.1479929475189292E+00   -9.0630614338214723E+00    3.9762835963169159E+00
O   -9.7594104152512564E+00   -4.6805773994181692E+00   -6.0169682086197973E+00
H   -9.5190771251346273E+00   -4.3450709925848701E+00   -5.1226764535719189E+00
H   -1.0288884059108721E+01   -3.9567057918344575E+00   -6.4224017187847178E+00
O   -1.9231030143243599E+00   -8.7909333837448820E+00   -5.5360041992259106E+00
H   -2.4634152148525930E+00   -8.8290785212451777E+00   -4.7014542287665755E+00
H   -2.6814041608423627E+00   -8.7272004986094913E+00   -6.1954949165103157E+00
O   -1.7304525216871560E+00   -6.2468436706830053E+00    8.0840534194977443E-01
H   -1.3902738555249368E+00   -5.7121108112529058E+00    2.0306111803366576E-02
H   -1.2229041134485130E+00   -7.0786906573138717E+00    8.6854139954494802E-01
O    3.3100919848264523E+00   -8.2568930172969246E+00    5.8659854968774736E+00
H    3.5225006233065490E+00   -7.4104770885786451E+00    5.4245154628695582E+00
H    3.7711683074962159E+00   -8.2197515344903032E+00    6.7308137559392707E+00
O    5.8107484956671529E+00    4.2003070247641183E-01    6.1583930488532266E+00
H    5.2657720316443433E+00    2.3515384709222623E-01    5.3673135159639029E+00
H    5.1950226729487845E+00    8.1938818504456956E-01    6.8512551877448109E+00
O   -3.2076664659757292E+00   -6.8217357816876705E+00    5.4606471499967650E+00
H   -3.4941604138416720E+00   -6.2691769991774091E+00    6.2945160480191893E+00
H   -2.4336294820110265E+00   -7.3009040525607274E+00    5.7887411420056951E+00
O    9.1179280817045498E+00    2.6870584021750559E+00   -6.0328243565912913E+00
H    9.4037711694348776E+00    3.5487905054573652E+00   -6.4057370192908873E+00
H    9.8958049230105107E+00    2.1144028763005829E+00   -5.9643095225608516E+00
O   -2.9953997255220632E+00   -1.4382082624193465E-01    2.4730206383334097E+00
H   -3.4151538117765350E+00    2.7750765703376495E-01    1.6945264801178490E+00
H   -2.0540407596336974E+00   -3.3905324168469708E-01    2.2532590426779469E+00
O    6.7989219601419304E+00    4.9745488052105786E+00    3.0995599335233748E+00
H    6.3094213963758916E+00    5.8534233295167626E+00    3.2610518032520988E+00
H    7.6260752060780499E+00    5.1265055994487181E+00    3.6210458171364017E+00
O    7.6694736877365832E+00    1.4998332294035672E+00    8.9513468199864548E+00
H    6.8998257899216746E+00    8.9404301464996971E-01    9.0767971793450002E+00
H    8.1179714400252507E+00    1.5874757055542905E+00    9.7929197492281901E+00
O   -2.5567794831794703E+00   -7.2366858618539114E+00   -3.1175792786541114E+00
H   -1.8727375104506301E+00   -6.7561604987944355E+00   -3.6249504944577753E+00
H   -2.1811254842807926E+00   -7.7266682895287193E+00   -2.3737512512765973E+00
O    5.3137432263728002E+00   -6.0771238139734871E+00   -3.5504819556645644E+00
H    4.8769400836178010E+00   -6.3264907593385100E+00   -2.7100108744560756E+00
H    6.2206600435296080E+00   -6.3580159244631025E+00   -3.3431821125213745E+00
O   -6.7901942714267989E+00   -6.5236569561634141E+00   -2.0589920446758003E+00
H   -6.8878090121064792E+00   -6.3863624288200871E+00   -1.0782741467348842E+00
H   -5.9944209700663276E+00   -5.9913771209792417E+00   -2.3294171213681136E+00
O    3.3333619738094811E+00   -9.3042750248512327E+00   -4.7942723611934035E+00
H    4.2302485587229546E+00   -9.3725430923933715E+00   -5.2246435922918355E+00
H    2.6371255769216861E+00   -9.2141941772556137E+00   -5.5148892072275988E+00
O   -2.5855625877706681E+00    4.9713495752496000E+00    8.9971961556302986E+00
H   -3.0451626679811858E+00    5.7110475420813964E+00    8.5433820149144122E+00
H   -1.7630586492724469E+00    5.3806683343351649E+00    9.3898823464342573E+00
O    2.2407672065093198E+00    3.4029260105484376E+00    9.7088639365607996E+00
H    2.5875747249513452E+00    4.2364271199693446E+00    1.0102029369183150E+01
H    1.6662817295174162E+00    3.0578603406976153E+00    1.0441949061204799E+01
O   -5.0271393176696817E+00   -2.7726395727957223E+00   -5.9004319520280992E+00
H   -5.4143627217949266E+00   -3.0226673844492713E+00   -4.9736019776574665E+00
H   -4.3106008098282587E+00   -3.4087663927855849E+00   -6.1649019837828165E+00
O   -2.9816943194952765E+00   -1.0297942297223115E+00   -5.1189028585895375E+00
H   -3.4036933197288759E+00   -1.6208630391062342E-01   -4.8668351337873759E+00
H   -3.7475982110263892E+00   -1.6863516906234135E+00   -5.3444615056689280E+00
O   -1.9067470355682531E-01   -1.0770059971994701E+01   -4.6462632991378658E+00
H   -9.5416745810392267E-01   -1.0250917373168331E+01   -5.0114713372096835E+00
H   -6.0352034999780335E-01   -1.1327256893633830E+01   -3.9633391523314820E+00
O   -5.2423771152830199E+00    2.2916187694110799E+00    2.7177310626230731E+00
H   -5.9304682709713905E+00    1.7954270546124957E+00    3.2699667521162414E+00
H   -5.4365861850316852E+00    1.9289591070567895E+00    1.8298178862142727E+00
O   -2.2593244438278921E+00    1.6522195866638472E+00    4.3140914841706621E+00
H   -2.5562024944124073E+00    1.1024301725016363E+00    3.5656235117535067E+00
H   -3.0828642472272021E+00    1.8632296736658143E+00    4.8028598986298414E+00
O   -5.0446418121041114E+00    4.6929047507294532E+00    4.2140914298717940E+00
H   -4.1448900433873002E+00    4.9282459109852477E+00    4.4702984959827106E+00
H   -5.0264563365679580E+00    3.9854541585956715E+00    3.5038364031671767E+00
O    4.8816583484404434E+00   -7.3780483401847325E+00   -1.2521337934497918E+00
H    4.0558483832330650E+00   -7.4804364110778288E+00   -7.0158879098057347E-01
H    5.5713647498372545E+00   -7.7454431882440842E+00   -6.5619263769671887E-01
O    3.8927479727532615E+00    1.5513271459606319E+00    7.7732472174923339E+00
H    3.5949539687102927E+00    2.2796412473032230E+00    7.2173191800342629E+00
H    4.0588075080192629E+00    1.9492423690777170E+00    8.6572999958977164E+00
O   -7.5147882188138002E+00    6.4143974356506011E+00    7.0340119470716509E+00
H   -7.3133138579426831E+00    7.1453465544986283E+00    6.4439873671080994E+00
H   -7.4183887683617700E+00    5.6288532674592284E+00    6.4156958276692029E+00
O    7.9210652479338461E-01   -3.9431449649428063E+00   -6.6351479104888806E+00
H    1.1273819196406756E+00   -3.5336358185682486E+00   -7.4974764735269739E+00
H    3.7673788669059566E-01   -4.7689615750472623E+00   -6.9053051000852079E+00
O   -3.8803285765650830E-01   -6.4943121127041996E+00    1.0376606305862111E+01
H   -3.6682776648763610E-01   -6.9501619381151345E+00    9.5067045608883500E+00
H   -5.1580760282450755E-01   -7.2416411577326976E+00    1.1015893098705623E+01
O   -8.7718710211141693E-01   -1.9278629257988691E+00   -3.5572148246388289E+00
H   -1.6130430035638972E+00   -1.7443287109509296E+00   -4.2381089080095018E+00
H   -1.2953592195547325E+00   -1.5586666823995246E+00   -2.7717982255503926E+00
O   -3.7512639790574159E-01    4.8451842029441901E+00    6.0345459507693153E+00
H    3.8241989368425222E-01    5.3700536437376005E+00    6.4140149465509531E+00
H   -3.4463425792953639E-01    4.1003572763243872E+00    6.6748971588046251E+00
O    5.2945473717907996E+00   -3.5016190297271486E+00    3.3147157843264213E-01
H    5.1766438437511111E+00   -3.4963088377575873E+00    1.3203147875388779E+00
H    4.7197496756700481E+00   -2.7869197153315874E+00   -4.8346229526851393E-02
O    6.0183968223660198E+00   -1.8637621155141668E+00    7.7062890310310737E+00
H    6.2007395150587516E+00   -1.0596473115617708E+00    7.1461495832353146E+00
H    6.4590898443029925E+00   -1.7894456783685049E+00    8.6213511245648498E+00
O   -4.1709586784915453E+00    4.9405514752970578E+00   -1.6739891937368756E-01
H   -4.0967257707889217E+00    4.0175046435867809E+00    1.8134414581910560E-01
H   -3.4390669541572816E+00    5.3721922456943068E+00    4.1099368618685600E-01
O   -2.7536963650210149E+00    5.7263684188198001E+00    5.0885140381474496E+00
H   -2.5437918788677241E+00    6.4786096383949561E+00    4.4057528762325315E+00
H   -1.8625601706812489E+00    5.3575975200121819E+00    5.3250061938660176E+00
O    1.8218079145919612E+00    5.6527832097443627E+00    1.7817707190454102E-01
H    2.6639713950789004E+00    5.2545314761805546E+00    5.3369689640085116E-01
H    2.0705863347210296E+00    6.0572081134999074E+00   -6.8445266069734489E-01
O   -1.0015289546094417E+01    2.1752333068635701E+00    2.1126326621969800E+00
H   -9.6384743693471311E+00    2.1813434798398950E+00    1.2185295616746936E+00
H   -9.9589734991740837E+00    3.0988712952855946E+00    2.3971645240248471E+00
O    6.0117759182073982E+00    3.7520425147172811E+00    5.9237970538452736E+00
H    5.5293490646488586E+00    2.9396980888593833E+00    6.0865972715253402E+00
H    6.0485370452542409E+00    3.8143526269188288E+00    4.9506901355902091E+00
O   -8.2215713720051120E+00    2.2390869405983853E+00   -1.4935775366456883E+00
H   -8.2738027052760099E+00    1.5330652044600299E+00   -7.8338264336937402E-01
H   -8.3119337740934913E+00    2.9744271695534685E+00   -9.0181971034613906E-01
O    4.1005622135510205E+00   -5.7844903217689847E-01   -6.1835672756723206E+00
H    3.9384138049955348E+00   -1.0385590560411204E+00   -5.3390305600841659E+00
H    4.9784190083865516E+00   -1.7210744879545922E-01   -6.0794906680456045E+00
O   -6.9836465885362067E+00   -5.5022365941891458E+00   -5.2971303085567190E+00
H   -7.5557871033605224E+00   -6.0552812158972911E+00   -5.8076520431819993E+00
H   -7.5130452732413344E+00   -5.1493196913604411E+00   -4.5020021381032995E+00
O    6.6569844518115762E+00    7.1210207271744776E+00    5.7794650527678018E+00
H    5.8125442548416650E+00    6.8027407557020636E+00    5.3211814711980532E+00
H    7.1942143588997141E+00    6.3105934643595774E+00    5.8192764929724339E+00
O    9.9498654793262826E+00    1.2124701506209751E+01    5.9300959322445159E+00
H    9.4478506187353783E+00    1.2898945507963928E+01    6.2585415091731864E+00
H    1.0226986322635113E+01    1.1709858452221301E+01    6.7642485792085427E+00
O    3.0113889819442066E+00    6.1364585022029345E+00   -2.6536278226225991E+00
H    3.0730989825393316E+00    6.8771884269630723E+00   -3.3181411262423701E+00
H    3.6035709297361027E+00    5.4269331074766436E+00   -3.0332808869211574E+00
O   -5.7897730455314689E-01   -4.3483614494003495E+00    2.7851558041555173E+00
H   -2.1809233166500044E-01   -3.7760975305795608E+00    2.0000388358246428E+00
H   -1.0341895845633997E+00   -5.0655357349707071E+00    2.2142810627179372E+00
O    5.4743152541635993E+00   -4.8589674388481485E-01    3.1836959842110160E+00
H    6.1359853343442436E+00   -1.1321890878362455E+00    3.4942647871014434E+00
H    6.0184930813629691E+00    3.0544001094766215E-01    2.9593123214992096E+00
O   -1.6311318867543254E+00   -3.5096143428336766E+00   -1.0530141289133974E+01
H   -2.4014117795213927E+00   -4.0487737040789638E+00   -1.0495881754001221E+01
H   -1.5375452383384225E+00   -3.2191497625496086E+00   -1.1451894999464091E+01
O   -7.0250802845948144E+00   -3.3196183589391808E+00    1.4015704873240956E-01
H   -6.7709579936199029E+00   -3.8437919343963429E+00   -6.4234101450839565E-01
H   -6.2286863678967217E+00   -3.1170104102721758E+00    7.0285711919041582E-01
O   -6.2786443811438728E+00    7.3287391141662370E+00    3.0566761827905724E+00
H   -5.8614142847876032E+00    7.8366049519555325E+00    2.3383092168877000E+00
H   -5.7279782854857233E+00    6.5099759805679351E+00    3.2770429812985031E+00
O    1.0555699432580006E+01    5.2585366819711234E+00   -6.9378965530066363E+00
H    1.0596804878640356E+01    5.7342436120217233E+00   -7.8011068507007701E+00
H    9.8627369027237091E+00    5.7985706972317086E+00   -6.4738362346187381E+00
O    4.3706660726592625E+00   -3.8509141389356718E+00    1.0154636467706943E+01
H    3.5112007769212537E+00   -3.6675883108922709E+00    9.7356692914993097E+00
H    5.0217632509162051E+00   -3.2759697635781224E+00    9.6656545898755368E+00
O   -3.8742573773934383E+00    7.4795133836170367E+00   -3.6060934659141397E+00
H   -3.8147578967870044E+00    6.7118415083026832E+00   -4.2501637302398638E+00
H   -3.5957219024405904E+00    7.1957133643924527E+00   -2.7296071351387066E+00
O   -8.0203143211513961E+00    7.1798401209917913E+00   -5.4096050635413668E+00
H   -8.5744223768151056E+00    7.6752705635908081E+00   -6.0424658965441616E+00
H   -7.4592327911225009E+00    7.8056887166249052E+00   -4.8333735568170528E+00
O   -5.1055173979278559E+00   -2.4887615664348615E+00    6.9289321741399075E+00
H   -5.0783652179173178E+00   -1.5676736221817236E+00    7.3375965227313662E+00
H   -5.6891835138307938E+00   -2.5334860702664934E+00    6.1480551935134109E+00
O   -3.8551564243261378E+00    7.0624813127162858E+00    7.1919436369053837E+00
H   -3.4633696628362363E+00    6.6262805813926118E+00    6.3834420645307901E+00
H   -4.8332042186502875E+00    6.8590751701797466E+00    7.1340932517668980E+00
O    6.9915111073888623E+00   -2.1654562045077994E+00    1.0033559695822197E+01
H    6.9717702830617814E+00   -1.3880332414422438E+00    1.0648283368807213E+01
H    7.9651039311728029E+00   -2.1701730737954525E+00    9.7709765054325075E+00
O   -4.3430852125916042E+00   -5.4589562549174584E+00   -1.9729622685645791E+00
H   -3.7630951156141315E+00   -5.0473905597912943E+00   -1.2921669683929458E+00
H   -3.6638206832387126E+00   -6.0417519973346980E+00   -2.4744284808302051E+00
O    9.5765751590147985E-01    3.8831296737327450E+00   -2.8581086193649008E+00
H    1.3760729270795868E+00    4.7688753269691988E+00   -2.7101138782984489E+00
H    4.6518438523364253E-01    3.7823898360647976E+00   -1.9983511113588999E+00
O   -7.3330796648173875E+00   -6.2071241768964338E+00    6.0150891834277309E-01
H   -7.9721122155372646E+00   -5.5232457779753865E+00    2.7120602320956994E-01
H   -7.9071527861318751E+00   -6.9692858571016911E+00    8.2180737435192797E-01
O   -3.1322388629354845E+00   -3.4396629067164515E+00   -1.5271093689327822E-01
H   -3.6288326767263515E+00   -3.4984814694310691E+00    6.8666526979493847E-01
H   -2.2740795153203814E+00   -3.1385534690233023E+00    1.1916511425175612E-01
O    4.2245530192026095E+00    2.2289160383460818E+00    2.2439398028094066E+00
H    5.2044969338428482E+00    1.9641177273133312E+00    2.3051076368820160E+00
H    4.2804298437370578E+00    3.1070099290195174E+00    1.7897453775981280E+00
O    5.0564295478147043E+00    6.5275275820207117E+00   -8.8835888665641938E-01
H    4.2516235065666583E+00    6.7988727406664751E+00   -1.4774927380182832E+00
H    4.8084623838698750E+00    7.1145558786699388E+00   -1.0320797238259366E-01
O    2.5195928407306036E+00    4.7083878405879442E+00    4.5500524192673586E+00
H    3.1058971878064776E+00    3.9319470579878515E+00    4.8333242233831912E+00
H    1.9268936920660020E+00    4.7927530989343685E+00    5.3120526025161174E+00
O    1.2999430585679317E+00   -7.5340105833091844E+00   -3.6947551420823039E+00
H    2.2403511486393719E+00   -7.8868162203794716E+00   -3.8651872431559040E+00
H    8.3373949316858331E-01   -8.3980001589371440E+00   -3.7766977310946195E+00
O    9.5990745350211863E+00   -7.3333156798781685E-01   -6.5735346930037875E-01
H    9.8295788848849952E+00   -1.5884657354360050E+00   -2.2706648586716091E-01
H    9.9981682506620988E+00   -9.2871759180638158E-01   -1.5601856550584083E+00
O   -5.4320200665457117E+00    1.5084692435653806E+00   -5.7774264177665211E+00
H   -5.4705218429017730E+00    1.9054332495616726E+00   -4.8441762045872103E+00
H   -6.0544713974262256E+00    7.5111250782363970E-01   -5.7011566282560739E+00
O   -9.9641801668161456E+00    1.6994498391455932E+00   -3.6643589784171096E+00
H   -9.4286047602154817E+00    1.8494844825764396E+00   -2.7956747466646488E+00
H   -9.5871785432520138E+00    2.2911468729354523E+00   -4.3614375751701537E+00
O   -3.6928869186877131E+00   -7.2907659664719455E+00    2.5209269115143251E+00
H   -4.0626419957962963E+00   -7.1478924992125643E+00    1.6224119402524788E+00
H   -3.4298192922813806E+00   -6.3850711270588780E+00    2.7145591684881514E+00
O   -2.0327579649664589E+00    1.5003677752434075E+00   -4.0258014807358240E+00
H   -1.3999402386034985E+00    7.4063343195699427E-01   -4.1264256882209525E+00
H   -2.2363075823740579E+00    1.4915281997602903E+00   -3.0517663149603678E+00
O   -2.1737196786097601E+00    6.1060899977047773E+00    1.5738186745973981E+00
H   -1.3133769596881402E+00    6.1624936638749661E+00    1.1073214385952714E+00
H   -2.2428005327966924E+00    6.8109230789998367E+00    2.2565771231862852E+00
O   -1.4677998746655361E+00   -9.0053328360480194E+00   -1.0195897474823283E+00
H   -4.9801331858502451E-01   -8.9841666045183270E+00   -8.8988784827499756E-01
H   -1.7510077447151888E+00   -9.9138267327521792E+00   -1.1205224672024212E+00
O    5.5906733010470369E+00   -4.4816483610624598E+00    6.4909085266572042E+00
H    5.6874989501121451E+00   -3.8259450684736045E+00    7.1470871642430271E+00
H    5.1393819937624929E+00   -5.3207951335227444E+00    6.9083428582873196E+00
O    1.1043849328311102E+00    2.5349104569722560E+00    2.2379375299079345E+00
H    1.5269802591218190E-01    2.8037695201453574E+00    2.4122571553304959E+00
H    1.5142207221155628E+00    2.6691498590606226E+00    3.1359641770793552E+00
O    7.6627140179443227E+00    4.2728738551294754E+00   -1.4638263670686780E-01
H    6.8043643864769878E+00    4.1966325666754960E+00    3.0017745308358496E-01
H    8.0431462042804789E+00    5.1478757240256172E+00    7.8366127847877179E-02
O    5.2098550796268128E+00    1.6855499996612857E+00   -1.4452309437755948E+00
H    5.7344579735332788E+00    9.6214133111501476E-01   -1.0215814094345836E+00
H    5.3918335693469901E+00    1.6481491549967644E+00   -2.3853617435969294E+00
O   -4.6684798225869510E-02    3.0567401817786592E+00   -5.5505002933264507E+00
H    1.2942874823734535E-01    3.4598644245515815E+00   -4.6538620115363392E+00
H   -9.3695097048177800E-01    2.7083161889252700E+00   -5.3472610971925638E+00
O    3.6301984392429931E-01    9.0625420799051888E+00    5.0944681111314667E+00
H    1.2353788525420222E+00    8.7926650143447258E+00    4.7480602039398967E+00
H    4.4992656739520964E-01    1.0015597475722668E+01    4.8678633865501144E+00
O   -8.4916069338353442E+00   -7.2881576306234077E+00    4.4263610246109062E+00
H   -8.1739828800951368E+00   -6.3749609876480715E+00    4.5261478050901101E+00
H   -7.7089262592544223E+00   -7.8930087838796483E+00    4.5965309126413176E+00
O   -4.3179306795810781E+00    9.0893330478980712E+00   -5.6358797207326816E-01
H   -4.5502229540197368E+00    9.7828507850948352E+00   -1.1778358540335334E+00
H   -3.3466614846202023E+00    9.2076184051826289E+00   -4.0166173708608027E-01
O    4.6861511876101556E+00    4.7141570214733433E+00   -4.5333373263645660E+00
H    4.5210424943296905E+00    5.2722129334636954E+00   -5.3618124632951689E+00
H    5.5418733506213220E+00    5.0447287637362388E+00   -4.2930953041239750E+00
O   -2.7925187648790368E+00   -4.5221292721311395E+00   -6.6602653225847162E+00
H   -1.8688765359047323E+00   -4.3464666772082889E+00   -6.3427830729131882E+00
H   -2.9818425750083355E+00   -5.3833364503961789E+00   -6.2940891407720123E+00
O    3.6097619747303731E+00    2.3430971141146451E+00    5.0810872576978428E+00
H    2.9115708583059692E+00    1.6351638958633021E+00    5.1553455144839653E+00
H    3.9050135782214825E+00    2.2478109821434504E+00    4.1511110784027396E+00
O   -5.5105732811166748E+00    4.8804951008454478E-01    5.8571791949680507E-01
H   -4.8382747952030494E+00    6.9865141232151706E-01   -6.8308516106892619E-02
H   -6.2508046529811949E+00    4.9707945317488129E-02    6.4490346525983192E-02
O    2.5670625948862051E+00   -6.4849008524403784E+00    8.9297302198106401E+00
H    2.4828018101951850E+00   -6.5682163191051153E+00    9.9161825913146373E+00
H    1.7595444318031259E+00   -5.9158583136781813E+00    8.8388800614818592E+00
O    1.8940262903080076E+00    9.1346014144941705E+00   -9.2331520262979216E-01
H    1.7394082236887580E+00    9.4986216657420428E+00   -3.0734234338539158E-02
H    1.8472809727270127E+00    9.9422297945930715E+00   -1.4778768399867370E+00
O    6.3956708561078823E-01    1.5982209087022030E+00    5.4017947683247094E+00
H   -1.5146596968069254E-01    2.1675905477850246E+00    5.6685016898149678E+00
H    6.9054284040110259E-01    1.0184706574547031E+00    6.1429018867435534E+00
O    2.2103561801129517E+00   -5.1022568864763693E+00   -2.1721641475215074E+00
H    1.9018220097882936E+00   -4.1470793116407005E+00   -2.2128754742895280E+00
H    1.7474806471618309E+00   -5.4373611688460102E+00   -2.9675664947066838E+00
O   -7.4584593026358359E+00   -2.0993180542212344E+00   -7.5960675814822256E+00
H   -7.6998557158095347E+00   -2.0880816488177594E+00   -8.5606237196804056E+00
H   -6.9041221542220059E+00   -2.8867584795075403E+00   -7.5123393843439654E+00
O   -4.8559754206038166E+00   -8.1846664261567470E-01   -2.5990770638511722E+00
H   -3.9388782650364300E+00   -7.2379587889484176E-01   -2.1972616326399450E+00
H   -5.1385187064472753E+00    1.1597828583687626E-01   -2.6962887263478841E+00
O   -1.7764675247684862E+00   -1.0885169822096450E+00    8.4347423581787186E+00
H   -1.3684086967938494E+00   -1.3032514704446554E+00    9.3386625098060936E+00
H   -1.4408032395893224E+00   -1.8544452262904425E+00    7.9004556412641538E+00
O    8.1182856731391730E+00   -3.4384780297325293E+00   -3.5652655819830232E+00
H    9.0831992919956974E+00   -3.3045316074138538E+00   -3.6210357275940450E+00
H    8.0302164899066906E+00   -4.0055585070601225E+00   -2.7838994836982547E+00
O    1.2575255218559376E+00   -2.0615217521046736E+00    4.4420836236831418E+00
H    1.8290203159076823E+00   -2.6555635659977042E+00    3.8375471334385214E+00