# avogadro generated ORCA input file 
# Basic Mode
# 
! BP RI OPT def2-TZVPP def2-TZVPP/J 

* xyz 0 1
   P       -1.10700       -0.36600        0.00000
   O        0.25600       -1.20400        0.00000
   O       -0.42300        0.69500        0.81100
   O       -2.72900       -0.76600        0.14600
   O       -1.74100       -0.41600       -1.46800
  Mg       -4.21400       -0.27600       -1.80400
   P        1.76500       -1.06400       -0.51400
   O        2.44800       -0.00300        0.29700
   O        2.11500       -1.33800       -2.13200
   O        2.67400       -2.65100       -0.98800
  Mg        3.26100       -3.19200       -3.35700
*

