# avogadro generated ORCA input file 
# Basic Mode
# 
! PBE RI OPT FREQ

%basis
  Basis "def2-TZVP"         # The orbital expansion basis set
  AuxJ  "def2/J"            # RI-J auxiliary basis set
end

* xyz 0 1
   P         -0.85400       -0.58900        0.37700
   O          0.50900       -1.42700        0.37700
   O         -0.78900        0.71500        0.82700
   O         -2.72500       -0.70000        0.68600
   O         -1.58000       -0.22100       -1.34000
   Mg        -2.87400        1.63200       -0.20200
   P          2.01800       -1.28700       -0.13700
   O          3.41000       -0.40000        0.15700
   O          2.25900       -1.08300       -2.01000
   O          2.88500       -2.97800       -0.14900
   Mg         4.59700       -1.77800       -1.46100
*

