! RKS PBE0 D4 def2-TZVP def2/J Opt Freq CPCM(Water)

%Maxcore 6000

%pal
 nprocs 1 
end


*xyzfile 0 1 input.xyz





 
